(set-logic QF_LIA)
(declare-fun x0 () Int)
(declare-fun x1 () Int)
(declare-fun x2 () Int)
(declare-fun x3 () Int)
(declare-fun x4 () Int)
(declare-fun x5 () Int)
(declare-fun x6 () Int)
(declare-fun x7 () Int)
(declare-fun x8 () Int)
(declare-fun x9 () Int)
(declare-fun A0 () Bool)
(declare-fun A1 () Bool)
(declare-fun A2 () Bool)
(declare-fun A3 () Bool)
(declare-fun A4 () Bool)
(declare-fun A5 () Bool)
(declare-fun A6 () Bool)
(declare-fun A7 () Bool)
(declare-fun A8 () Bool)
(declare-fun A9 () Bool)
(assert (let ((.def_0 (* 1 x1))) (let ((.def_1 (* (- 1) x5))) (let ((.def_2 (+ .def_1 .def_0))) (let ((.def_3 (< .def_2 (- 1)))) (let ((.def_4 (not .def_3))) (let ((.def_5 (* (- 1) x2))) (let ((.def_6 (* 1 x4))) (let ((.def_7 (+ .def_6 .def_5))) (let ((.def_8 (< .def_7 (- 1)))) (let ((.def_9 (not .def_8))) (let ((.def_10 (and .def_9 .def_4))) (let ((.def_11 (* (- 1) x3))) (let ((.def_12 (+ .def_5 .def_11))) (let ((.def_13 (< .def_12 1))) (let ((.def_14 (* 1 x2))) (let ((.def_15 (< .def_14 1))) (let ((.def_16 (not .def_15))) (let ((.def_17 (= .def_16 .def_13))) (let ((.def_18 (not .def_17))) (let ((.def_19 (= .def_18 .def_10))) (let ((.def_20 (not .def_19))) (let ((.def_21 (* (- 1) x0))) (let ((.def_22 (+ .def_14 .def_21))) (let ((.def_23 (< .def_22 1))) (let ((.def_24 (not .def_23))) (let ((.def_25 (* 1 x6))) (let ((.def_26 (+ .def_25 .def_1))) (let ((.def_27 (< .def_26 1))) (let ((.def_28 (not .def_27))) (let ((.def_29 (= .def_28 .def_24))) (let ((.def_30 (not .def_29))) (let ((.def_31 (< .def_1 (- 1)))) (let ((.def_32 (not .def_31))) (let ((.def_33 (* 1 x3))) (let ((.def_34 (+ .def_33 .def_21))) (let ((.def_35 (< .def_34 1))) (let ((.def_36 (not .def_35))) (let ((.def_37 (and .def_36 .def_32))) (let ((.def_38 (not .def_37))) (let ((.def_39 (and .def_38 .def_30))) (let ((.def_40 (and .def_39 .def_20))) (let ((.def_41 (not .def_40))) (let ((.def_42 (* (- 1) x6))) (let ((.def_43 (* 1 x8))) (let ((.def_44 (+ .def_43 .def_42))) (let ((.def_45 (< .def_44 (- 1)))) (let ((.def_46 (or A1 .def_45))) (let ((.def_47 (< .def_11 (- 1)))) (let ((.def_48 (not .def_47))) (let ((.def_49 (or .def_48 A1))) (let ((.def_50 (not .def_49))) (let ((.def_51 (and .def_50 .def_46))) (let ((.def_52 (not A7))) (let ((.def_53 (and .def_52 .def_52))) (let ((.def_54 (not .def_53))) (let ((.def_55 (* (- 1) x4))) (let ((.def_56 (< .def_55 (- 1)))) (let ((.def_57 (* (- 1) x8))) (let ((.def_58 (* (- 1) x7))) (let ((.def_59 (+ .def_58 .def_57))) (let ((.def_60 (< .def_59 (- 1)))) (let ((.def_61 (or .def_60 .def_56))) (let ((.def_62 (not .def_61))) (let ((.def_63 (and .def_62 .def_54))) (let ((.def_64 (not .def_63))) (let ((.def_65 (= .def_64 .def_51))) (let ((.def_66 (not .def_65))) (let ((.def_67 (and .def_66 .def_41))) (let ((.def_68 (not .def_67))) (let ((.def_69 (+ .def_57 .def_6))) (let ((.def_70 (< .def_69 (- 1)))) (let ((.def_71 (not .def_70))) (let ((.def_72 (* 1 x5))) (let ((.def_73 (+ .def_25 .def_72))) (let ((.def_74 (< .def_73 (- 1)))) (let ((.def_75 (or .def_74 .def_71))) (let ((.def_76 (not A1))) (let ((.def_77 (= .def_76 A4))) (let ((.def_78 (and .def_77 .def_75))) (let ((.def_79 (not .def_78))) (let ((.def_80 (or .def_76 A6))) (let ((.def_81 (not A2))) (let ((.def_82 (or A4 .def_81))) (let ((.def_83 (not .def_82))) (let ((.def_84 (or .def_83 .def_80))) (let ((.def_85 (or .def_84 .def_79))) (let ((.def_86 (not .def_85))) (let ((.def_87 (not A4))) (let ((.def_88 (< .def_5 1))) (let ((.def_89 (not .def_88))) (let ((.def_90 (or .def_89 .def_87))) (let ((.def_91 (not A3))) (let ((.def_92 (and A7 .def_91))) (let ((.def_93 (not .def_92))) (let ((.def_94 (or .def_93 .def_90))) (let ((.def_95 (not .def_94))) (let ((.def_96 (* 1 x7))) (let ((.def_97 (< .def_96 (- 1)))) (let ((.def_98 (not .def_97))) (let ((.def_99 (+ .def_96 .def_33))) (let ((.def_100 (< .def_99 (- 1)))) (let ((.def_101 (not .def_100))) (let ((.def_102 (and .def_101 .def_98))) (let ((.def_103 (not .def_102))) (let ((.def_104 (< .def_42 1))) (let ((.def_105 (< .def_21 (- 1)))) (let ((.def_106 (and .def_105 .def_104))) (let ((.def_107 (not .def_106))) (let ((.def_108 (or .def_107 .def_103))) (let ((.def_109 (not .def_108))) (let ((.def_110 (or .def_109 .def_95))) (let ((.def_111 (not .def_110))) (let ((.def_112 (or .def_111 .def_86))) (let ((.def_113 (and .def_112 .def_68))) (let ((.def_114 (not .def_113))) (let ((.def_115 (or A9 .def_91))) (let ((.def_116 (not A9))) (let ((.def_117 (not .def_104))) (let ((.def_118 (or .def_117 .def_116))) (let ((.def_119 (and .def_118 .def_115))) (let ((.def_120 (not .def_119))) (let ((.def_121 (* (- 1) x1))) (let ((.def_122 (< .def_121 1))) (let ((.def_123 (+ .def_55 .def_11))) (let ((.def_124 (< .def_123 1))) (let ((.def_125 (or .def_124 .def_122))) (let ((.def_126 (not .def_125))) (let ((.def_127 (< .def_33 (- 1)))) (let ((.def_128 (or .def_127 A8))) (let ((.def_129 (not .def_128))) (let ((.def_130 (or .def_129 .def_126))) (let ((.def_131 (or .def_130 .def_120))) (let ((.def_132 (not .def_131))) (let ((.def_133 (or .def_116 .def_116))) (let ((.def_134 (not .def_133))) (let ((.def_135 (< .def_121 (- 1)))) (let ((.def_136 (not .def_135))) (let ((.def_137 (or A3 .def_136))) (let ((.def_138 (not .def_137))) (let ((.def_139 (or .def_138 .def_134))) (let ((.def_140 (* 1 x9))) (let ((.def_141 (+ .def_55 .def_140))) (let ((.def_142 (< .def_141 (- 1)))) (let ((.def_143 (= .def_142 A3))) (let ((.def_144 (not .def_143))) (let ((.def_145 (not A0))) (let ((.def_146 (and A8 .def_145))) (let ((.def_147 (not .def_146))) (let ((.def_148 (and .def_147 .def_144))) (let ((.def_149 (or .def_148 .def_139))) (let ((.def_150 (not .def_149))) (let ((.def_151 (or .def_150 .def_132))) (let ((.def_152 (not A5))) (let ((.def_153 (< .def_72 1))) (let ((.def_154 (not .def_153))) (let ((.def_155 (or .def_154 .def_152))) (let ((.def_156 (+ .def_72 .def_96))) (let ((.def_157 (< .def_156 (- 1)))) (let ((.def_158 (not .def_157))) (let ((.def_159 (or .def_91 .def_158))) (let ((.def_160 (not .def_159))) (let ((.def_161 (or .def_160 .def_155))) (let ((.def_162 (< .def_21 1))) (let ((.def_163 (+ .def_0 .def_58))) (let ((.def_164 (< .def_163 (- 1)))) (let ((.def_165 (and .def_164 .def_162))) (let ((.def_166 (not A6))) (let ((.def_167 (or .def_166 .def_127))) (let ((.def_168 (not .def_167))) (let ((.def_169 (or .def_168 .def_165))) (let ((.def_170 (= .def_169 .def_161))) (let ((.def_171 (not .def_170))) (let ((.def_172 (+ .def_11 .def_6))) (let ((.def_173 (< .def_172 (- 1)))) (let ((.def_174 (not .def_173))) (let ((.def_175 (not A8))) (let ((.def_176 (and .def_175 .def_174))) (let ((.def_177 (not .def_176))) (let ((.def_178 (and .def_87 .def_87))) (let ((.def_179 (and .def_178 .def_177))) (let ((.def_180 (+ .def_6 .def_1))) (let ((.def_181 (< .def_180 (- 1)))) (let ((.def_182 (not .def_181))) (let ((.def_183 (or A5 .def_182))) (let ((.def_184 (not .def_183))) (let ((.def_185 (and A3 .def_87))) (let ((.def_186 (or .def_185 .def_184))) (let ((.def_187 (not .def_186))) (let ((.def_188 (or .def_187 .def_179))) (let ((.def_189 (or .def_188 .def_171))) (let ((.def_190 (not .def_189))) (let ((.def_191 (or .def_190 .def_151))) (let ((.def_192 (not .def_191))) (let ((.def_193 (and .def_192 .def_114))) (let ((.def_194 (<= x9 1))) (let ((.def_195 (<= 0 x9))) (let ((.def_196 (<= x8 1))) (let ((.def_197 (<= 0 x8))) (let ((.def_198 (<= x7 1))) (let ((.def_199 (<= 0 x7))) (let ((.def_200 (<= x6 1))) (let ((.def_201 (<= 0 x6))) (let ((.def_202 (<= x5 1))) (let ((.def_203 (<= 0 x5))) (let ((.def_204 (<= x4 1))) (let ((.def_205 (<= 0 x4))) (let ((.def_206 (<= x3 1))) (let ((.def_207 (<= 0 x3))) (let ((.def_208 (<= x2 1))) (let ((.def_209 (<= 0 x2))) (let ((.def_210 (<= x1 1))) (let ((.def_211 (<= 0 x1))) (let ((.def_212 (<= x0 1))) (let ((.def_213 (<= 0 x0))) (let ((.def_214 (and .def_213 .def_212 .def_211 .def_210 .def_209 .def_208 .def_207 .def_206 .def_205 .def_204 .def_203 .def_202 .def_201 .def_200 .def_199 .def_198 .def_197 .def_196 .def_195 .def_194 .def_193))) .def_214))))))))))))))))))))))))))))))))))))))))))))))))))))))))))))))))))))))))))))))))))))))))))))))))))))))))))))))))))))))))))))))))))))))))))))))))))))))))))))))))))))))))))))))))))))))))))))))))))))))))))))))))))))))))
(check-sat)
